CMPL model generation - running

CMPL version: 1.11.0
Authors: Thomas Schleiff, Mike Steglich
Distributed under the GPLv3 

create model instance ...
write model instance ...
CMPL model generation - finished

Solver - running


Welcome to IBM(R) ILOG(R) CPLEX(R) Interactive Optimizer 12.7.1.0
  with Simplex, Mixed Integer & Barrier Optimizers
5725-A06 5725-A29 5724-Y48 5724-Y49 5724-Y54 5724-Y55 5655-Y21
Copyright IBM Corp. 1988, 2017.  All Rights Reserved.

Type 'help' for a list of available commands.
Type 'help' followed by a command name for more
information on commands.

CPLEX> Specified objective sense: MINIMIZE
Selected objective  name:  line[1]
Selected RHS        name:  RHS
Selected bound      name:  BOUND
Problem '/tmp/cmpl.T24489.mps' read.
Read time = 0.07 sec. (8.18 ticks)
CPLEX> CPXPARAM_Read_APIEncoding                        "UTF-8"
Tried aggregator 3 times.
MIP Presolve eliminated 19119 rows and 30474 columns.
MIP Presolve modified 340 coefficients.
Aggregator did 705 substitutions.
Reduced MIP has 2531 rows, 3414 columns, and 9948 nonzeros.
Reduced MIP has 3246 binaries, 0 generals, 0 SOSs, and 0 indicators.
Presolve time = 0.06 sec. (42.15 ticks)
Found incumbent of value 1749.816730 after 0.15 sec. (84.49 ticks)
Probing fixed 17 vars, tightened 0 bounds.
Probing time = 0.01 sec. (4.48 ticks)
Tried aggregator 1 time.
MIP Presolve eliminated 0 rows and 17 columns.
MIP Presolve modified 98 coefficients.
Reduced MIP has 2531 rows, 3397 columns, and 9914 nonzeros.
Reduced MIP has 3397 binaries, 0 generals, 0 SOSs, and 0 indicators.
Presolve time = 0.01 sec. (8.46 ticks)
Probing time = 0.01 sec. (2.72 ticks)
Clique table members: 6083.
MIP emphasis: balance optimality and feasibility.
MIP search method: dynamic search.
Parallel mode: none, using 1 thread.
Root relaxation solution time = 0.01 sec. (6.18 ticks)

        Nodes                                         Cuts/
   Node  Left     Objective  IInf  Best Integer    Best Bound    ItCnt     Gap

*     0+    0                         1749.8167      -14.2052           100.81%
      0     0      357.3110     3     1749.8167      357.3110      273   79.58%
*     0+    0                          359.3108      357.3110             0.56%
*     0+    0                          357.3967      357.3110             0.02%
      0     0      357.3116     1      357.3967       Cuts: 9      282    0.02%
*     0+    0                          357.3401      357.3116             0.01%

GUB cover cuts applied:  1
Cover cuts applied:  5
Gomory fractional cuts applied:  3

Root node processing (before b&c):
  Real time             =    0.22 sec. (131.13 ticks)
Sequential b&c:
  Real time             =    0.00 sec. (0.00 ticks)
                          ------------
Total (root+branch&cut) =    0.22 sec. (131.13 ticks)

Solution pool: 4 solutions saved.

MIP - Integer optimal, tolerance (0.0001/1e-06):  Objective =  3.5734012600e+02
Current MIP best bound =  3.5731155400e+02 (gap = 0.028572, 0.01%)
Solution time =    0.22 sec.  Iterations = 282  Nodes = 0 (1)
Deterministic time = 131.23 ticks  (585.94 ticks/sec)

CPLEX> Incumbent solution written to file '/tmp/cmpl.T24489.gsol'.
CPLEX> 
CMPL: Time used for model generation: 0 seconds
CMPL: Time used for solving the model: 1 seconds


Solution written to ASCII file: results/output_generated_conf_0.7/2017-02-06-4/fair-nonlinear.sol

Solver - finished
